35 66 59 12 62 39 68 8 78 53 58 65 13 26 44 43 28 11 9 18 77 30 23 7 74 48 63 64 17 25 22 33 79 1 75 67 6 40 46 29 10 16 55 69 71 57 31 51 60 27 24 70 15 41 47 20 37 45 54 50 5 32 3 73 76 38 19 49 2 52 42 56 61 72 36 4 34 14 21 0